Route 1: 0 52 47 76 31 89 36 28 10 51 35 86 0
Route 2: 0 67 91 49 94 2 24 0
Route 3: 0 37 71 61 96 92 99 85 79 9 0
Route 4: 0 6 12 83 66 98 18 45 40 8 88 55 30 0
Route 5: 0 4 80 46 1 53 56 44 39 0
Route 6: 0 60 27 90 7 75 57 68 33 41 0
Route 7: 0 70 64 22 58 78 23 100 19 69 0
Route 8: 0 11 50 95 21 62 74 59 48 5 77 0
Route 9: 0 54 87 93 26 16 29 13 17 3 0
Route 10: 0 72 43 42 63 81 14 73 38 20 82 0
Route 11: 0 32 65 25 84 34 97 15 0
